c FILE: aim-50-1_6-yes1-4.cnf
c
c SOURCE: Kazuo Iwama, Eiji Miyano (miyano@cscu.kyushu-u.ac.jp),
c          and Yuichi Asahiro
c
c DESCRIPTION: Artifical instances from generator by source.  Generators
c              and more information in sat/contributed/iwama.
c
c NOTE: Satisfiable
c Simplified to make processing faster
p cnf 20 30
1 2 3 0
-2 4 3 0
-2 -4 3 0
1 -3 5 0
1 -3 -5 0
-1 -6 7 0
-1 -6 -7 0
-1 6 -8 0
-9 6 8 0
9 -1 10 0
9 -10 -11 0
9 -10 -7 0
7 11 12 0
-13 7 -12 0
13 -14 -12 0
13 14 -15 0
14 15 16 0
-17 15 -16 0
14 18 -16 0
-19 17 -18 0
19 -18 -20 0
19 -9 -20 0
-13 -9 12 0
-17 -14 16 0
3 -7 -16 0
10 2 -15 0
4 17 18 0
-19 9 5 0
-3 -8 20 0
-15 8 -11 0